33D32945 STP File, STP Format Version 1.0

SECTION Result
Length 30
Time 0,144000
Algorithm HAKIMI
END

SECTION Comment
Name "full_18"
END

SECTION Graph
Nodes 18
Edges 153
E 16 4 6
E 12 8 15
E 16 3 18
E 12 7 16
E 16 2 12
E 12 6 18
E 16 1 10
E 12 5 5
E 12 4 16
E 12 3 7
E 12 2 6
E 12 1 8
E 14 13 7
E 14 12 18
E 14 11 9
E 14 10 3
E 5 1 13
E 5 2 15
E 5 3 2
E 5 4 16
E 9 1 2
E 9 2 6
E 9 3 6
E 9 4 1
E 16 9 1
E 9 5 4
E 16 8 19
E 17 15 10
E 9 6 13
E 16 7 3
E 17 16 19
E 16 6 18
E 9 7 8
E 16 5 12
E 9 8 6
E 12 9 19
E 17 11 8
E 17 12 9
E 17 13 2
E 17 14 5
E 17 10 2
E 11 1 2
E 15 5 10
E 11 9 18
E 15 4 5
E 11 8 14
E 15 3 1
E 11 7 2
E 15 2 10
E 11 6 4
E 15 1 8
E 11 5 9
E 11 4 13
E 11 3 16
E 11 2 14
E 16 15 18
E 16 14 10
E 16 13 5
E 16 12 15
E 16 11 15
E 16 10 17
E 4 1 8
E 4 2 11
E 4 3 17
E 8 1 7
E 8 2 4
E 11 10 10
E 8 3 7
E 8 4 20
E 8 5 14
E 8 6 14
E 15 9 17
E 8 7 16
E 15 8 18
E 15 7 9
E 15 6 20
E 10 2 4
E 10 1 11
E 18 2 20
E 14 6 8
E 18 1 13
E 14 5 4
E 10 9 5
E 14 4 5
E 10 8 4
E 14 3 14
E 10 7 12
E 14 2 10
E 10 6 6
E 14 1 15
E 10 5 13
E 10 4 6
E 10 3 15
E 18 16 2
E 18 17 11
E 18 12 19
E 18 13 18
E 18 14 12
E 18 15 4
E 18 10 11
E 18 11 6
E 3 1 2
E 3 2 17
E 7 1 18
E 7 2 20
E 7 3 19
E 7 4 4
E 18 9 12
E 7 5 19
E 18 8 5
E 13 11 7
E 7 6 15
E 18 7 15
E 13 12 17
E 18 6 20
E 18 5 3
E 14 9 6
E 18 4 20
E 14 8 2
E 18 3 17
E 14 7 19
E 13 10 11
E 17 3 8
E 13 7 4
E 17 2 7
E 13 6 15
E 17 1 14
E 13 5 6
E 13 4 20
E 13 3 5
E 13 2 10
E 13 1 2
E 12 10 15
E 12 11 12
E 2 1 16
E 6 1 17
E 6 2 12
E 6 3 5
E 6 4 4
E 6 5 19
E 17 9 6
E 15 14 9
E 17 8 15
E 15 13 16
E 17 7 18
E 17 6 4
E 17 5 10
E 13 9 6
E 17 4 11
E 13 8 8
E 15 12 17
E 15 11 11
E 15 10 19
END

SECTION Terminals
Terminals 10
T 2
T 3
T 5
T 6
T 7
T 11
T 12
T 13
T 14
T 15
END

SECTION Solution
S 13 1 2
S 14 5 4
S 15 3 1
S 3 1 2
S 5 3 2
S 12 2 6
S 11 6 4
S 12 5 5
S 11 1 2
S 11 7 2
END

EOF
